** Uniaxial GCDP tension bar, explicitly integrated, with the gradient-enhanced field either
** parabolic (viscous, first order in time) or damped hyperbolic (micro-inertia, second order).
**
** Generated from template.inp by run_study.py -- edit the template, not the generated decks.
** The placeholders it substitutes are the double-underscore tokens below; do not name them in a
** comment, or the substitution rewrites the comment too and a multi-line replacement turns the
** rest of that line into a stray dataline.
**
** The geometry, material and weak central element are those of examples/AlphaP_AMR_Study, which is
** the calibrated fracture-energy benchmark for this material, so the load-displacement curve and
** the dissipated energy can be compared against a reference that was established independently of
** anything here. Added for the explicit runs: the density (idx 19) and the non-local viscosity
** (idx 20), neither of which an implicit run needs.

*material, name=GCDP, id=myMaterial
**E         nu          fcy         fcu         fbu         ftu         Df          Ah
30600.0,    0.2,        9.3,        32.3,       37.0,       2.70,       0.85,       0.08,
**Bh        Ch          Dh          As          epsF        lDamage     m           maxDmg
0.003,      2.0,        0.000001,   15.0,       0.0031,     5.0,        1.00,       0.999,
**drvdvMthd dTThrshHold viscosity   density     nonlocalViscosity
0,          1e-12,      0.0,        2.4e-9,     1e-5

*material, name=GCDP, id=myMaterialWeak
**E         nu          fcy         fcu         fbu         ftu         Df          Ah
30600.0,    0.2,        9.3,        32.3,       37.0,       2.68,       0.85,       0.08,
**Bh        Ch          Dh          As          epsF        lDamage     m           maxDmg
0.003,      2.0,        0.000001,   15.0,       0.0031,     5.0,        1.00,       0.999,
**drvdvMthd dTThrshHold viscosity   density     nonlocalViscosity
0,          1e-12,      0.0,        2.4e-9,     1e-5

*job, name=hyperbolicBar, domain=3d

** Courant 0.1, not the 0.8 default: l/c is a linear-element formula and a 20-node element's
** highest free eigenfrequency lies far above it. See testfiles/marmot/GCDPNEDExplicit.
*solver, solver=NEDParallel, name=theSolver
__SOLVER_FIELDS__
courant-number=0.1
output-frequency=2000

*modelGenerator, generator=boxGen, name=gen
lX = 100.0
lY = 5.0
lZ = 5.0
nX = __NX__
nY = 1
nZ = 1
elType = GC3D20R

*section, name=section1, material=myMaterial, type=solid
gen_all

*section, name=section2, material=myMaterialWeak, type=solid
gen_centralFrontToBack

__ELEMENT_PROPERTY__

*fieldOutput
>>perNode, elSet=gen_all, name=displacement, field=displacement, result=U
>>perNode, elSet=gen_all, name=nonlocalDamage, field=nonlocal damage, result=U
>>perElement, elSet=gen_all, name=omega, result=omega, quadraturePoint=0:8, f(x)='np.max(x,axis=1)'
>>perElement, elSet=gen_all, name=alphaP, result=alphaP, quadraturePoint=0:8, f(x)='np.max(x,axis=1)'
>>perNode, name=U, nSet=gen_right, field=displacement, result=U, f(x)='np.mean(x[:, 0])', saveHistory=True, export=U
>>perNode, name=RF, nSet=gen_left, field=displacement, result=P, f(x)='np.sum(x[:, 0])', saveHistory=True, export=RF

*output, type=monitor, name=RFMon
fieldOutput=RF
fieldOutput=U

** The cross section is 25 mm^2, so this integrates the dissipated work per unit fracture area:
** the fracture energy the two schemes have to agree on.
*output, type=fractureenergyintegrator, name=gfi
forceFieldOutput=RF, displacementFieldOutput=U, f(x)='25.0'

*output, type=ensight, name=esExport
>>perNode, fieldOutput=displacement
>>perNode, fieldOutput=nonlocalDamage
>>perElement, fieldOutput=omega
>>perElement, fieldOutput=alphaP
>>configuration, overwrite=yes

** The ramp is long against the bar's own transit time (100 mm at ~3.5e6 mm/s is 2.9e-5 s), so the
** run is quasi-static in the sense that matters here: the inertial contribution to the reaction is
** small, and what is being compared between the two schemes is the softening response and not a
** wave problem.
*step, type=adaptiveForExplicitSimulations, solver=theSolver
maxInc=1, minInc=1e-14, maxNumInc=__MAX_NUM_INC__, maxIter=25, stepLength=__STEP_LENGTH__
>>dirichlet, name=leftX, nSet=gen_left, field=displacement, 1=0.0
>>dirichlet, name=leftY, nSet=gen_left, field=displacement, 2=0.0
>>dirichlet, name=leftZ, nSet=gen_left, field=displacement, 3=0.0
>>dirichlet, name=right, nSet=gen_right, field=displacement, 1=0.1
