** GCDP fracture-energy calibration: the same uniaxial tension bar solved implicitly and
** explicitly, with the gradient-enhanced field parabolic or hyperbolic and with or without
** artificial bulk viscosity.
**
** Generated by run_calibration.py. Edit the template, never the generated decks. The tokens it
** substitutes are the double-underscore names below -- do not name them in a comment, or the
** substitution rewrites the comment too and a multi-line replacement turns the rest of that line
** into a stray dataline.
**
** Geometry, material and the weakened central element are those of examples/AlphaP_AMR_Study, the
** established fracture-energy benchmark for this material, so every variant here is measured
** against a reference that predates all of this work. The explicit variants add the density
** (idx 19) and the non-local viscosity (idx 20); an implicit run needs neither and ignores both.
**
** The Duvaut-Lions viscosity (idx 18) is ZERO in every variant. It is a relaxation time, so a value
** tuned for implicit increments of ~1e-2 s would leave dT/eta << 1 at an explicit increment of
** ~1e-8 s and the material would respond essentially elastically. Keeping it zero is what makes the
** implicit and explicit variants the same constitutive problem.

*material, name=GCDP, id=myMaterial
**E         nu          fcy         fcu         fbu         ftu         Df          Ah
30600.0,    0.2,        9.3,        32.3,       37.0,       2.70,       0.85,       0.08,
**Bh        Ch          Dh          As          epsF        lDamage     m           maxDmg
0.003,      2.0,        0.000001,   15.0,       0.0031,     5.0,        1.00,       0.999,
**drvdvMthd dTThrshHold viscosity   density     nonlocalViscosity
0,          1e-12,      0.0,        2.4e-9,     1e-5

*material, name=GCDP, id=myMaterialWeak
**E         nu          fcy         fcu         fbu         ftu         Df          Ah
30600.0,    0.2,        9.3,        32.3,       37.0,       2.68,       0.85,       0.08,
**Bh        Ch          Dh          As          epsF        lDamage     m           maxDmg
0.003,      2.0,        0.000001,   15.0,       0.0031,     5.0,        1.00,       0.999,
**drvdvMthd dTThrshHold viscosity   density     nonlocalViscosity
0,          1e-12,      0.0,        2.4e-9,     1e-5

*job, name=calibrationJob, domain=3d

__SOLVER_BLOCK__

*modelGenerator, generator=boxGen, name=gen
lX = 100.0
lY = 5.0
lZ = 5.0
nX = __NX__
nY = 1
nZ = 1
elType = GC3D20R

*section, name=section1, material=myMaterial, type=solid
gen_all

*section, name=section2, material=myMaterialWeak, type=solid
gen_centralFrontToBack

__ELEMENT_PROPERTIES__

*fieldOutput
>>perNode, elSet=gen_all, name=displacement, field=displacement, result=U
>>perNode, elSet=gen_all, name=nonlocalDamage, field=nonlocal damage, result=U
>>perElement, elSet=gen_all, name=omega, result=omega, quadraturePoint=0:8, f(x)='np.max(x,axis=1)'
>>perElement, elSet=gen_all, name=alphaP, result=alphaP, quadraturePoint=0:8, f(x)='np.max(x,axis=1)'
>>perNode, name=U, nSet=gen_right, field=displacement, result=U, f(x)='np.mean(x[:, 0])', saveHistory=True, export=U
>>perNode, name=RF, nSet=gen_left, field=displacement, result=P, f(x)='np.sum(x[:, 0])', saveHistory=True, export=RF

*output, type=monitor, name=RFMon
fieldOutput=RF
fieldOutput=U

** The cross section is 25 mm^2, so this is the dissipated work per unit fracture area: the
** quantity every variant has to agree on.
*output, type=fractureenergyintegrator, name=gfi
forceFieldOutput=RF, displacementFieldOutput=U, f(x)='25.0'

*output, type=ensight, name=esExport
>>perNode, fieldOutput=displacement
>>perNode, fieldOutput=nonlocalDamage
>>perElement, fieldOutput=omega
>>perElement, fieldOutput=alphaP
>>configuration, overwrite=yes

__STEP_BLOCK__
